set E:= "E0","E1","E2","E3","E4","E5","E6","E7","E8","E9","E10","E11","E12","E13","E14","E15","E16","E17","E18","E19";

set D:= "D0","D1","D2","D3","D4","D5","D6","D7","D8";

set T:= "L","Ma","Mi","J","V";

set G:= "G0","G1","G2","G3";

set Z:= "Z0","Z1";

param EscZona: Z0 Z1 := 
       D0  1  0
       D1  1  0
       D2  1  0
       D3  1  0
       D4  1  0
       D5  0  1
       D6  0  1
       D7  0  1
       D8  0  1
;

param DispEsc: D0 D1 D2 D3 D4 D5 D6 D7 D8 := 
       E0  0  0  1  1  1  0  1  1  0
       E1  0  0  1  0  1  0  1  0  0
       E2  1  1  0  1  0  1  1  0  1
       E3  0  1  1  0  1  0  1  0  0
       E4  1  1  1  0  1  0  1  0  0
       E5  1  0  1  1  0  0  0  1  0
       E6  0  1  1  0  1  1  1  1  0
       E7  1  1  0  1  1  1  0  0  0
       E8  1  1  0  1  1  0  0  0  1
       E9  0  0  1  0  0  0  1  1  1
       E10  0  1  0  0  1  1  1  1  0
       E11  1  1  1  1  0  0  1  1  1
       E12  1  1  1  1  0  1  0  1  1
       E13  0  1  0  1  1  1  0  1  1
       E14  1  0  0  1  1  0  0  0  0
       E15  0  0  0  1  1  1  0  0  0
       E16  0  0  0  0  1  1  0  0  1
       E17  0  1  1  0  0  1  0  0  0
       E18  1  1  0  1  1  1  0  1  1
       E19  0  1  0  1  1  1  1  1  1
;

param EmpGrupo: G0 G1 G2 G3 := 
       E0  1  0  0  0
       E1  1  0  0  0
       E2  1  0  0  0
       E3  1  0  0  0
       E4  1  0  0  0
       E5  0  1  0  0
       E6  0  1  0  0
       E7  0  1  0  0
       E8  0  1  0  0
       E9  0  1  0  0
       E10  0  0  1  0
       E11  0  0  1  0
       E12  0  0  1  0
       E13  0  0  1  0
       E14  0  0  1  0
       E15  0  0  0  1
       E16  0  0  0  1
       E17  0  0  0  1
       E18  0  0  0  1
       E19  0  0  0  1
;

param Preferencia: L Ma Mi J V := 
       E0  0  0  1  0  0
       E1  0  1  1  0  0
       E2  1  1  1  0  0
       E3  1  0  1  0  0
       E4  1  1  1  0  0
       E5  0  1  0  1  0
       E6  0  0  1  1  0
       E7  0  1  1  0  0
       E8  0  0  0  1  1
       E9  0  1  1  0  0
       E10  1  1  0  0  0
       E11  1  0  0  0  1
       E12  0  0  1  1  0
       E13  0  0  0  0  1
       E14  1  1  1  0  0
       E15  0  0  1  0  1
       E16  1  0  1  0  0
       E17  1  1  1  0  1
       E18  0  1  1  1  1
       E19  0  0  0  1  1
;

param Boni := 5; 
param zonas_maximas_grupo := 2;